\ LP format - for model browsing. Use MPS format to capture full model detail.
Maximize
  5 var(0) + 8 var(1)
Subject To
 constr(0): var(0) + var(1) <= 6
 constr(1): 5 var(0) + 9 var(1) <= 45
Bounds
Generals
 var(0) var(1)
End
